Fe bcc primitive cell
1.0
-1.433  1.433  1.433
 1.433 -1.433  1.433
 1.433  1.433 -1.433
Fe
1
Direct
0.0 0.0 0.0
