Fe bcc primitive cell                   
   2.86600000000000     
    -0.4945240259750541    0.4945240259750541    0.4945240259750541
     0.4945240259750541   -0.4945240259750541    0.4945240259750541
     0.4945240259750541    0.4945240259750541   -0.4945240259750541
   Fe
     1
Direct
  0.0000000000000000  0.0000000000000000 -0.0000000000000000
 

